c Reduced graph for mulsol.i.5_0 generated by Cyril Grelier
p edge 116 2464
e 1 2
e 1 4
e 1 5
e 1 6
e 1 7
e 1 10
e 1 12
e 1 13
e 1 14
e 1 18
e 1 19
e 1 20
e 1 21
e 1 23
e 1 24
e 1 28
e 1 29
e 1 32
e 1 34
e 1 35
e 1 37
e 1 38
e 1 40
e 1 41
e 1 42
e 1 43
e 1 44
e 1 45
e 1 51
e 1 52
e 1 58
e 1 63
e 1 64
e 1 66
e 1 68
e 1 78
e 1 79
e 1 82
e 1 86
e 1 87
e 1 89
e 1 91
e 1 92
e 1 100
e 1 101
e 1 104
e 1 107
e 1 108
e 1 109
e 1 110
e 1 112
e 1 114
e 2 4
e 2 5
e 2 6
e 2 7
e 2 8
e 2 10
e 2 13
e 2 14
e 2 18
e 2 19
e 2 20
e 2 21
e 2 23
e 2 24
e 2 28
e 2 29
e 2 32
e 2 34
e 2 35
e 2 37
e 2 38
e 2 41
e 2 42
e 2 43
e 2 44
e 2 45
e 2 48
e 2 49
e 2 51
e 2 52
e 2 58
e 2 63
e 2 64
e 2 66
e 2 68
e 2 78
e 2 79
e 2 80
e 2 82
e 2 89
e 2 90
e 2 91
e 2 100
e 2 101
e 2 107
e 2 108
e 2 109
e 2 110
e 2 112
e 2 114
e 3 9
e 3 12
e 3 25
e 3 27
e 3 30
e 3 31
e 3 34
e 3 36
e 3 40
e 3 47
e 3 50
e 3 53
e 3 54
e 3 57
e 3 59
e 3 62
e 3 66
e 3 67
e 3 69
e 3 72
e 3 73
e 3 74
e 3 75
e 3 76
e 3 77
e 3 81
e 3 83
e 3 84
e 3 86
e 3 87
e 3 88
e 3 92
e 3 93
e 3 94
e 3 95
e 3 96
e 3 97
e 3 98
e 3 99
e 3 102
e 3 104
e 3 105
e 3 106
e 3 111
e 3 113
e 3 115
e 3 116
e 4 5
e 4 6
e 4 7
e 4 10
e 4 13
e 4 14
e 4 18
e 4 19
e 4 20
e 4 21
e 4 23
e 4 24
e 4 28
e 4 29
e 4 32
e 4 34
e 4 35
e 4 37
e 4 38
e 4 41
e 4 42
e 4 43
e 4 44
e 4 45
e 4 51
e 4 52
e 4 58
e 4 64
e 4 66
e 4 68
e 4 78
e 4 79
e 4 82
e 4 86
e 4 89
e 4 91
e 4 100
e 4 101
e 4 107
e 4 108
e 4 109
e 4 114
e 5 6
e 5 7
e 5 10
e 5 13
e 5 14
e 5 18
e 5 19
e 5 20
e 5 21
e 5 23
e 5 24
e 5 28
e 5 29
e 5 32
e 5 34
e 5 35
e 5 37
e 5 38
e 5 41
e 5 42
e 5 43
e 5 44
e 5 45
e 5 51
e 5 52
e 5 58
e 5 64
e 5 66
e 5 68
e 5 78
e 5 79
e 5 82
e 5 86
e 5 89
e 5 91
e 5 100
e 5 101
e 5 107
e 5 108
e 5 109
e 5 114
e 6 7
e 6 18
e 6 19
e 6 20
e 6 23
e 6 24
e 6 28
e 6 34
e 6 35
e 6 41
e 6 42
e 6 43
e 6 44
e 6 51
e 6 52
e 6 58
e 6 66
e 6 68
e 6 78
e 6 79
e 6 86
e 6 89
e 6 91
e 6 100
e 6 107
e 6 108
e 6 109
e 7 18
e 7 19
e 7 20
e 7 23
e 7 24
e 7 28
e 7 34
e 7 35
e 7 41
e 7 42
e 7 43
e 7 44
e 7 51
e 7 52
e 7 58
e 7 66
e 7 68
e 7 78
e 7 79
e 7 86
e 7 89
e 7 91
e 7 100
e 7 107
e 7 108
e 7 109
e 8 12
e 8 18
e 8 19
e 8 20
e 8 27
e 8 34
e 8 35
e 8 40
e 8 50
e 8 51
e 8 52
e 8 62
e 8 66
e 8 68
e 8 72
e 8 76
e 8 78
e 8 86
e 8 87
e 8 88
e 8 92
e 8 93
e 8 98
e 8 99
e 8 104
e 8 105
e 8 107
e 8 108
e 8 109
e 9 12
e 9 27
e 9 34
e 9 36
e 9 40
e 9 50
e 9 53
e 9 57
e 9 62
e 9 66
e 9 67
e 9 72
e 9 73
e 9 76
e 9 77
e 9 86
e 9 87
e 9 88
e 9 92
e 9 93
e 9 94
e 9 95
e 9 96
e 9 98
e 9 99
e 9 104
e 9 105
e 9 106
e 9 115
e 10 18
e 10 19
e 10 20
e 10 23
e 10 24
e 10 28
e 10 34
e 10 35
e 10 41
e 10 42
e 10 43
e 10 44
e 10 51
e 10 52
e 10 58
e 10 66
e 10 68
e 10 78
e 10 79
e 10 86
e 10 89
e 10 100
e 10 101
e 10 107
e 10 108
e 10 109
e 11 12
e 11 16
e 11 27
e 11 34
e 11 40
e 11 50
e 11 62
e 11 65
e 11 66
e 11 67
e 11 72
e 11 76
e 11 77
e 11 86
e 11 87
e 11 88
e 11 92
e 11 93
e 11 98
e 11 99
e 11 104
e 11 105
e 12 15
e 12 16
e 12 17
e 12 22
e 12 25
e 12 26
e 12 27
e 12 30
e 12 31
e 12 33
e 12 36
e 12 39
e 12 40
e 12 41
e 12 42
e 12 43
e 12 46
e 12 47
e 12 48
e 12 49
e 12 50
e 12 53
e 12 54
e 12 55
e 12 56
e 12 57
e 12 59
e 12 60
e 12 61
e 12 62
e 12 63
e 12 65
e 12 67
e 12 69
e 12 70
e 12 71
e 12 72
e 12 73
e 12 74
e 12 75
e 12 76
e 12 77
e 12 80
e 12 81
e 12 83
e 12 84
e 12 85
e 12 86
e 12 87
e 12 88
e 12 89
e 12 90
e 12 92
e 12 93
e 12 94
e 12 95
e 12 96
e 12 97
e 12 98
e 12 99
e 12 102
e 12 103
e 12 104
e 12 105
e 12 106
e 12 110
e 12 111
e 12 112
e 12 113
e 12 115
e 12 116
e 13 18
e 13 19
e 13 20
e 13 21
e 13 23
e 13 24
e 13 28
e 13 34
e 13 35
e 13 41
e 13 42
e 13 43
e 13 44
e 13 51
e 13 52
e 13 58
e 13 66
e 13 68
e 13 78
e 13 79
e 13 86
e 13 89
e 13 100
e 13 107
e 13 108
e 13 109
e 14 18
e 14 19
e 14 20
e 14 23
e 14 24
e 14 28
e 14 29
e 14 34
e 14 35
e 14 41
e 14 42
e 14 43
e 14 44
e 14 51
e 14 52
e 14 58
e 14 66
e 14 68
e 14 78
e 14 79
e 14 86
e 14 89
e 14 100
e 14 107
e 14 108
e 14 109
e 15 22
e 15 27
e 15 34
e 15 40
e 15 50
e 15 55
e 15 62
e 15 66
e 15 67
e 15 72
e 15 76
e 15 77
e 15 86
e 15 87
e 15 88
e 15 92
e 15 93
e 15 98
e 15 99
e 15 103
e 15 104
e 15 105
e 16 27
e 16 34
e 16 40
e 16 50
e 16 62
e 16 65
e 16 66
e 16 67
e 16 72
e 16 76
e 16 77
e 16 86
e 16 87
e 16 88
e 16 92
e 16 93
e 16 98
e 16 99
e 16 104
e 16 105
e 17 26
e 17 27
e 17 34
e 17 39
e 17 40
e 17 50
e 17 62
e 17 66
e 17 72
e 17 76
e 17 86
e 17 87
e 17 88
e 17 92
e 17 93
e 17 98
e 17 99
e 17 104
e 17 105
e 18 19
e 18 20
e 18 21
e 18 23
e 18 24
e 18 28
e 18 29
e 18 32
e 18 34
e 18 35
e 18 37
e 18 38
e 18 41
e 18 42
e 18 43
e 18 44
e 18 45
e 18 48
e 18 51
e 18 52
e 18 58
e 18 63
e 18 64
e 18 66
e 18 68
e 18 78
e 18 79
e 18 80
e 18 82
e 18 89
e 18 90
e 18 91
e 18 100
e 18 101
e 18 107
e 18 108
e 18 109
e 18 110
e 18 112
e 18 114
e 19 20
e 19 21
e 19 23
e 19 24
e 19 28
e 19 29
e 19 32
e 19 34
e 19 35
e 19 37
e 19 38
e 19 41
e 19 42
e 19 43
e 19 44
e 19 45
e 19 51
e 19 52
e 19 58
e 19 63
e 19 64
e 19 66
e 19 68
e 19 78
e 19 79
e 19 82
e 19 89
e 19 91
e 19 100
e 19 101
e 19 107
e 19 108
e 19 109
e 19 110
e 19 112
e 19 114
e 20 21
e 20 23
e 20 24
e 20 28
e 20 29
e 20 32
e 20 34
e 20 35
e 20 37
e 20 38
e 20 41
e 20 42
e 20 43
e 20 44
e 20 45
e 20 51
e 20 52
e 20 58
e 20 63
e 20 64
e 20 66
e 20 68
e 20 78
e 20 79
e 20 82
e 20 89
e 20 91
e 20 100
e 20 101
e 20 107
e 20 108
e 20 109
e 20 110
e 20 112
e 20 114
e 21 23
e 21 24
e 21 28
e 21 34
e 21 35
e 21 41
e 21 42
e 21 43
e 21 44
e 21 51
e 21 52
e 21 58
e 21 66
e 21 68
e 21 78
e 21 79
e 21 86
e 21 89
e 21 100
e 21 107
e 21 108
e 21 109
e 22 27
e 22 33
e 22 34
e 22 40
e 22 46
e 22 50
e 22 55
e 22 62
e 22 66
e 22 67
e 22 72
e 22 76
e 22 77
e 22 86
e 22 87
e 22 88
e 22 92
e 22 93
e 22 94
e 22 98
e 22 99
e 22 103
e 22 104
e 22 105
e 22 106
e 23 24
e 23 28
e 23 29
e 23 32
e 23 34
e 23 35
e 23 37
e 23 38
e 23 41
e 23 42
e 23 43
e 23 44
e 23 45
e 23 51
e 23 52
e 23 58
e 23 63
e 23 64
e 23 66
e 23 68
e 23 78
e 23 79
e 23 82
e 23 89
e 23 91
e 23 100
e 23 101
e 23 107
e 23 108
e 23 109
e 23 110
e 23 112
e 23 114
e 24 28
e 24 29
e 24 32
e 24 34
e 24 35
e 24 37
e 24 38
e 24 41
e 24 42
e 24 43
e 24 44
e 24 45
e 24 51
e 24 52
e 24 58
e 24 64
e 24 66
e 24 68
e 24 78
e 24 79
e 24 82
e 24 86
e 24 89
e 24 91
e 24 100
e 24 101
e 24 107
e 24 108
e 24 109
e 24 114
e 25 27
e 25 34
e 25 36
e 25 40
e 25 50
e 25 53
e 25 57
e 25 62
e 25 66
e 25 67
e 25 72
e 25 73
e 25 76
e 25 77
e 25 86
e 25 87
e 25 88
e 25 92
e 25 93
e 25 94
e 25 95
e 25 96
e 25 98
e 25 99
e 25 104
e 25 105
e 25 106
e 25 113
e 26 27
e 26 34
e 26 39
e 26 40
e 26 50
e 26 62
e 26 66
e 26 72
e 26 76
e 26 86
e 26 87
e 26 88
e 26 92
e 26 93
e 26 98
e 26 99
e 26 104
e 26 105
e 27 30
e 27 31
e 27 33
e 27 36
e 27 39
e 27 40
e 27 46
e 27 47
e 27 48
e 27 49
e 27 50
e 27 53
e 27 54
e 27 55
e 27 56
e 27 57
e 27 59
e 27 60
e 27 61
e 27 62
e 27 65
e 27 67
e 27 69
e 27 70
e 27 71
e 27 72
e 27 73
e 27 74
e 27 75
e 27 76
e 27 77
e 27 80
e 27 81
e 27 83
e 27 84
e 27 85
e 27 86
e 27 87
e 27 88
e 27 90
e 27 92
e 27 93
e 27 94
e 27 95
e 27 96
e 27 97
e 27 98
e 27 99
e 27 102
e 27 103
e 27 104
e 27 105
e 27 106
e 27 111
e 27 113
e 27 115
e 27 116
e 28 29
e 28 32
e 28 34
e 28 35
e 28 37
e 28 38
e 28 41
e 28 42
e 28 43
e 28 44
e 28 45
e 28 51
e 28 52
e 28 58
e 28 64
e 28 66
e 28 68
e 28 78
e 28 79
e 28 82
e 28 86
e 28 89
e 28 91
e 28 100
e 28 101
e 28 107
e 28 108
e 28 109
e 28 114
e 29 34
e 29 35
e 29 41
e 29 42
e 29 43
e 29 44
e 29 51
e 29 52
e 29 58
e 29 66
e 29 68
e 29 78
e 29 79
e 29 82
e 29 86
e 29 89
e 29 100
e 29 107
e 29 108
e 29 109
e 30 34
e 30 36
e 30 40
e 30 50
e 30 53
e 30 54
e 30 57
e 30 62
e 30 66
e 30 67
e 30 72
e 30 73
e 30 76
e 30 77
e 30 86
e 30 87
e 30 88
e 30 92
e 30 93
e 30 94
e 30 95
e 30 96
e 30 97
e 30 98
e 30 99
e 30 104
e 30 105
e 30 106
e 31 34
e 31 36
e 31 40
e 31 50
e 31 53
e 31 57
e 31 62
e 31 66
e 31 67
e 31 72
e 31 73
e 31 76
e 31 77
e 31 84
e 31 86
e 31 87
e 31 88
e 31 92
e 31 93
e 31 94
e 31 95
e 31 96
e 31 98
e 31 99
e 31 104
e 31 105
e 31 106
e 32 34
e 32 35
e 32 38
e 32 41
e 32 42
e 32 43
e 32 44
e 32 51
e 32 52
e 32 58
e 32 66
e 32 68
e 32 78
e 32 79
e 32 86
e 32 89
e 32 100
e 32 107
e 32 108
e 32 109
e 33 34
e 33 40
e 33 46
e 33 50
e 33 57
e 33 62
e 33 66
e 33 67
e 33 72
e 33 76
e 33 77
e 33 86
e 33 87
e 33 88
e 33 92
e 33 93
e 33 94
e 33 98
e 33 99
e 33 103
e 33 104
e 33 105
e 33 106
e 34 35
e 34 36
e 34 37
e 34 38
e 34 39
e 34 41
e 34 42
e 34 43
e 34 44
e 34 45
e 34 46
e 34 47
e 34 48
e 34 49
e 34 51
e 34 52
e 34 53
e 34 54
e 34 55
e 34 56
e 34 57
e 34 58
e 34 59
e 34 60
e 34 61
e 34 63
e 34 64
e 34 65
e 34 66
e 34 67
e 34 68
e 34 69
e 34 70
e 34 71
e 34 73
e 34 74
e 34 75
e 34 77
e 34 78
e 34 79
e 34 80
e 34 81
e 34 82
e 34 83
e 34 84
e 34 85
e 34 89
e 34 90
e 34 91
e 34 94
e 34 95
e 34 96
e 34 97
e 34 100
e 34 101
e 34 102
e 34 103
e 34 106
e 34 107
e 34 108
e 34 109
e 34 110
e 34 111
e 34 112
e 34 113
e 34 114
e 34 115
e 34 116
e 35 37
e 35 38
e 35 41
e 35 42
e 35 43
e 35 44
e 35 45
e 35 48
e 35 49
e 35 51
e 35 52
e 35 58
e 35 61
e 35 63
e 35 64
e 35 66
e 35 68
e 35 71
e 35 78
e 35 79
e 35 80
e 35 82
e 35 85
e 35 89
e 35 90
e 35 91
e 35 100
e 35 101
e 35 107
e 35 108
e 35 109
e 35 110
e 35 112
e 35 114
e 36 40
e 36 47
e 36 50
e 36 53
e 36 54
e 36 57
e 36 59
e 36 62
e 36 66
e 36 67
e 36 72
e 36 73
e 36 74
e 36 75
e 36 76
e 36 77
e 36 81
e 36 83
e 36 84
e 36 86
e 36 87
e 36 88
e 36 92
e 36 93
e 36 94
e 36 95
e 36 96
e 36 97
e 36 98
e 36 99
e 36 102
e 36 104
e 36 105
e 36 106
e 36 111
e 36 113
e 36 115
e 36 116
e 37 41
e 37 42
e 37 43
e 37 44
e 37 45
e 37 51
e 37 52
e 37 58
e 37 66
e 37 68
e 37 78
e 37 79
e 37 86
e 37 89
e 37 100
e 37 101
e 37 107
e 37 108
e 37 109
e 38 41
e 38 42
e 38 43
e 38 44
e 38 51
e 38 52
e 38 58
e 38 66
e 38 68
e 38 78
e 38 79
e 38 86
e 38 89
e 38 100
e 38 107
e 38 108
e 38 109
e 39 40
e 39 50
e 39 62
e 39 66
e 39 72
e 39 76
e 39 86
e 39 87
e 39 88
e 39 92
e 39 93
e 39 98
e 39 99
e 39 104
e 39 105
e 40 41
e 40 42
e 40 46
e 40 47
e 40 48
e 40 49
e 40 50
e 40 53
e 40 54
e 40 55
e 40 56
e 40 57
e 40 59
e 40 60
e 40 61
e 40 62
e 40 63
e 40 65
e 40 67
e 40 69
e 40 70
e 40 71
e 40 72
e 40 73
e 40 74
e 40 75
e 40 76
e 40 77
e 40 80
e 40 81
e 40 83
e 40 84
e 40 85
e 40 86
e 40 87
e 40 88
e 40 90
e 40 92
e 40 93
e 40 94
e 40 95
e 40 96
e 40 97
e 40 98
e 40 99
e 40 102
e 40 103
e 40 104
e 40 105
e 40 106
e 40 110
e 40 111
e 40 112
e 40 113
e 40 115
e 40 116
e 41 42
e 41 43
e 41 44
e 41 45
e 41 51
e 41 52
e 41 58
e 41 63
e 41 64
e 41 66
e 41 68
e 41 78
e 41 79
e 41 82
e 41 86
e 41 89
e 41 91
e 41 92
e 41 100
e 41 101
e 41 104
e 41 107
e 41 108
e 41 109
e 41 110
e 41 112
e 41 114
e 42 43
e 42 44
e 42 45
e 42 51
e 42 52
e 42 58
e 42 63
e 42 64
e 42 66
e 42 68
e 42 78
e 42 79
e 42 82
e 42 86
e 42 89
e 42 91
e 42 92
e 42 100
e 42 101
e 42 107
e 42 108
e 42 109
e 42 110
e 42 112
e 42 114
e 43 44
e 43 45
e 43 51
e 43 52
e 43 58
e 43 63
e 43 64
e 43 66
e 43 68
e 43 78
e 43 79
e 43 82
e 43 86
e 43 89
e 43 91
e 43 100
e 43 101
e 43 107
e 43 108
e 43 109
e 43 110
e 43 112
e 43 114
e 44 45
e 44 51
e 44 52
e 44 58
e 44 63
e 44 64
e 44 66
e 44 68
e 44 78
e 44 79
e 44 82
e 44 86
e 44 89
e 44 91
e 44 100
e 44 101
e 44 107
e 44 108
e 44 109
e 44 110
e 44 112
e 44 114
e 45 51
e 45 52
e 45 58
e 45 66
e 45 68
e 45 78
e 45 79
e 45 86
e 45 89
e 45 100
e 45 101
e 45 107
e 45 108
e 45 109
e 46 50
e 46 55
e 46 57
e 46 62
e 46 66
e 46 67
e 46 69
e 46 70
e 46 72
e 46 73
e 46 76
e 46 77
e 46 86
e 46 87
e 46 88
e 46 92
e 46 93
e 46 94
e 46 98
e 46 99
e 46 103
e 46 104
e 46 105
e 46 106
e 47 50
e 47 53
e 47 57
e 47 62
e 47 66
e 47 67
e 47 72
e 47 73
e 47 76
e 47 77
e 47 83
e 47 86
e 47 87
e 47 88
e 47 92
e 47 93
e 47 94
e 47 95
e 47 96
e 47 98
e 47 99
e 47 104
e 47 105
e 47 106
e 48 49
e 48 50
e 48 56
e 48 61
e 48 62
e 48 66
e 48 71
e 48 72
e 48 76
e 48 78
e 48 80
e 48 85
e 48 86
e 48 87
e 48 88
e 48 90
e 48 92
e 48 93
e 48 98
e 48 99
e 48 104
e 48 105
e 48 107
e 49 50
e 49 56
e 49 61
e 49 62
e 49 66
e 49 71
e 49 72
e 49 76
e 49 78
e 49 80
e 49 85
e 49 86
e 49 87
e 49 88
e 49 90
e 49 92
e 49 93
e 49 98
e 49 99
e 49 104
e 49 105
e 49 107
e 50 53
e 50 54
e 50 55
e 50 56
e 50 57
e 50 59
e 50 60
e 50 61
e 50 62
e 50 65
e 50 67
e 50 69
e 50 70
e 50 71
e 50 72
e 50 73
e 50 74
e 50 75
e 50 76
e 50 77
e 50 80
e 50 81
e 50 83
e 50 84
e 50 85
e 50 86
e 50 87
e 50 88
e 50 90
e 50 92
e 50 93
e 50 94
e 50 95
e 50 96
e 50 97
e 50 98
e 50 99
e 50 102
e 50 103
e 50 104
e 50 105
e 50 106
e 50 111
e 50 113
e 50 115
e 50 116
e 51 52
e 51 58
e 51 63
e 51 64
e 51 66
e 51 68
e 51 78
e 51 79
e 51 82
e 51 89
e 51 91
e 51 100
e 51 101
e 51 107
e 51 108
e 51 109
e 51 110
e 51 112
e 51 114
e 52 58
e 52 63
e 52 64
e 52 66
e 52 68
e 52 78
e 52 79
e 52 82
e 52 89
e 52 91
e 52 100
e 52 101
e 52 107
e 52 108
e 52 109
e 52 110
e 52 112
e 52 114
e 53 54
e 53 57
e 53 59
e 53 62
e 53 66
e 53 67
e 53 69
e 53 72
e 53 73
e 53 74
e 53 75
e 53 76
e 53 77
e 53 81
e 53 83
e 53 84
e 53 86
e 53 87
e 53 88
e 53 92
e 53 93
e 53 94
e 53 95
e 53 96
e 53 97
e 53 98
e 53 99
e 53 102
e 53 104
e 53 105
e 53 106
e 53 111
e 53 113
e 53 115
e 53 116
e 54 57
e 54 62
e 54 66
e 54 67
e 54 72
e 54 73
e 54 76
e 54 77
e 54 86
e 54 87
e 54 88
e 54 92
e 54 93
e 54 94
e 54 95
e 54 96
e 54 97
e 54 98
e 54 99
e 54 104
e 54 105
e 54 106
e 55 62
e 55 66
e 55 67
e 55 72
e 55 76
e 55 77
e 55 86
e 55 87
e 55 88
e 55 92
e 55 93
e 55 98
e 55 99
e 55 103
e 55 104
e 55 105
e 55 106
e 56 61
e 56 62
e 56 66
e 56 71
e 56 72
e 56 76
e 56 80
e 56 85
e 56 86
e 56 87
e 56 88
e 56 90
e 56 92
e 56 93
e 56 98
e 56 99
e 56 104
e 56 105
e 57 59
e 57 60
e 57 62
e 57 66
e 57 67
e 57 69
e 57 70
e 57 72
e 57 73
e 57 74
e 57 75
e 57 76
e 57 77
e 57 81
e 57 83
e 57 84
e 57 86
e 57 87
e 57 88
e 57 92
e 57 93
e 57 94
e 57 95
e 57 96
e 57 97
e 57 98
e 57 99
e 57 102
e 57 103
e 57 104
e 57 105
e 57 106
e 57 111
e 57 113
e 57 115
e 57 116
e 58 63
e 58 64
e 58 66
e 58 68
e 58 78
e 58 79
e 58 82
e 58 89
e 58 91
e 58 100
e 58 101
e 58 107
e 58 108
e 58 109
e 58 110
e 58 112
e 58 114
e 59 62
e 59 66
e 59 67
e 59 72
e 59 73
e 59 76
e 59 77
e 59 81
e 59 86
e 59 87
e 59 88
e 59 92
e 59 93
e 59 94
e 59 95
e 59 96
e 59 98
e 59 99
e 59 104
e 59 105
e 59 106
e 59 111
e 60 62
e 60 66
e 60 67
e 60 69
e 60 70
e 60 72
e 60 73
e 60 76
e 60 77
e 60 86
e 60 87
e 60 88
e 60 92
e 60 93
e 60 94
e 60 95
e 60 98
e 60 99
e 60 104
e 60 105
e 60 106
e 61 62
e 61 66
e 61 71
e 61 72
e 61 76
e 61 80
e 61 85
e 61 86
e 61 87
e 61 88
e 61 90
e 61 92
e 61 93
e 61 98
e 61 99
e 61 104
e 61 105
e 61 107
e 62 63
e 62 65
e 62 67
e 62 69
e 62 70
e 62 71
e 62 72
e 62 73
e 62 74
e 62 75
e 62 76
e 62 77
e 62 80
e 62 81
e 62 83
e 62 84
e 62 85
e 62 86
e 62 87
e 62 88
e 62 90
e 62 92
e 62 93
e 62 94
e 62 95
e 62 96
e 62 97
e 62 98
e 62 99
e 62 102
e 62 103
e 62 104
e 62 105
e 62 106
e 62 110
e 62 111
e 62 113
e 62 115
e 62 116
e 63 66
e 63 68
e 63 72
e 63 78
e 63 86
e 63 87
e 63 88
e 63 89
e 63 92
e 63 104
e 63 107
e 63 108
e 63 109
e 63 110
e 63 112
e 64 66
e 64 68
e 64 78
e 64 79
e 64 86
e 64 89
e 64 100
e 64 107
e 64 108
e 64 109
e 64 114
e 65 66
e 65 67
e 65 72
e 65 76
e 65 77
e 65 86
e 65 87
e 65 88
e 65 92
e 65 93
e 65 98
e 65 99
e 65 104
e 65 105
e 66 67
e 66 68
e 66 69
e 66 70
e 66 71
e 66 73
e 66 74
e 66 75
e 66 77
e 66 78
e 66 79
e 66 80
e 66 81
e 66 82
e 66 83
e 66 84
e 66 85
e 66 89
e 66 90
e 66 91
e 66 94
e 66 95
e 66 96
e 66 97
e 66 100
e 66 101
e 66 102
e 66 103
e 66 106
e 66 107
e 66 108
e 66 109
e 66 110
e 66 111
e 66 112
e 66 113
e 66 114
e 66 115
e 66 116
e 67 69
e 67 70
e 67 72
e 67 73
e 67 74
e 67 75
e 67 76
e 67 77
e 67 81
e 67 83
e 67 84
e 67 86
e 67 87
e 67 88
e 67 92
e 67 93
e 67 94
e 67 95
e 67 96
e 67 97
e 67 98
e 67 99
e 67 102
e 67 103
e 67 104
e 67 105
e 67 106
e 67 111
e 67 113
e 67 115
e 67 116
e 68 78
e 68 79
e 68 80
e 68 82
e 68 89
e 68 90
e 68 91
e 68 100
e 68 101
e 68 107
e 68 108
e 68 109
e 68 110
e 68 112
e 68 114
e 69 70
e 69 72
e 69 73
e 69 76
e 69 77
e 69 86
e 69 87
e 69 88
e 69 92
e 69 93
e 69 94
e 69 95
e 69 96
e 69 98
e 69 99
e 69 104
e 69 105
e 69 106
e 70 72
e 70 73
e 70 76
e 70 77
e 70 86
e 70 87
e 70 88
e 70 92
e 70 93
e 70 94
e 70 95
e 70 96
e 70 98
e 70 99
e 70 103
e 70 104
e 70 105
e 70 106
e 71 72
e 71 76
e 71 80
e 71 85
e 71 86
e 71 87
e 71 88
e 71 90
e 71 92
e 71 93
e 71 98
e 71 99
e 71 104
e 71 105
e 72 73
e 72 74
e 72 75
e 72 76
e 72 77
e 72 80
e 72 81
e 72 83
e 72 84
e 72 85
e 72 86
e 72 87
e 72 88
e 72 90
e 72 92
e 72 93
e 72 94
e 72 95
e 72 96
e 72 97
e 72 98
e 72 99
e 72 102
e 72 103
e 72 104
e 72 105
e 72 106
e 72 111
e 72 113
e 72 115
e 72 116
e 73 74
e 73 75
e 73 76
e 73 77
e 73 81
e 73 83
e 73 84
e 73 86
e 73 87
e 73 88
e 73 92
e 73 93
e 73 94
e 73 95
e 73 96
e 73 97
e 73 98
e 73 99
e 73 102
e 73 104
e 73 105
e 73 106
e 73 111
e 73 113
e 73 115
e 73 116
e 74 75
e 74 76
e 74 77
e 74 81
e 74 86
e 74 87
e 74 88
e 74 92
e 74 93
e 74 94
e 74 95
e 74 96
e 74 98
e 74 99
e 74 104
e 74 105
e 74 106
e 75 76
e 75 77
e 75 81
e 75 86
e 75 87
e 75 88
e 75 92
e 75 93
e 75 94
e 75 95
e 75 96
e 75 98
e 75 99
e 75 104
e 75 105
e 75 106
e 76 77
e 76 80
e 76 81
e 76 83
e 76 84
e 76 85
e 76 86
e 76 87
e 76 88
e 76 90
e 76 92
e 76 93
e 76 94
e 76 95
e 76 96
e 76 97
e 76 98
e 76 99
e 76 102
e 76 103
e 76 104
e 76 105
e 76 106
e 76 111
e 76 113
e 76 115
e 76 116
e 77 81
e 77 83
e 77 84
e 77 86
e 77 87
e 77 88
e 77 92
e 77 93
e 77 94
e 77 95
e 77 96
e 77 97
e 77 98
e 77 99
e 77 102
e 77 103
e 77 104
e 77 105
e 77 106
e 77 108
e 77 111
e 77 113
e 77 115
e 77 116
e 78 79
e 78 80
e 78 82
e 78 85
e 78 89
e 78 90
e 78 91
e 78 100
e 78 101
e 78 107
e 78 108
e 78 109
e 78 110
e 78 112
e 78 114
e 79 82
e 79 86
e 79 89
e 79 91
e 79 100
e 79 101
e 79 107
e 79 108
e 79 109
e 79 114
e 80 85
e 80 86
e 80 87
e 80 88
e 80 90
e 80 92
e 80 93
e 80 98
e 80 99
e 80 104
e 80 105
e 80 107
e 81 86
e 81 87
e 81 88
e 81 92
e 81 93
e 81 94
e 81 95
e 81 96
e 81 98
e 81 99
e 81 104
e 81 105
e 81 106
e 81 111
e 82 86
e 82 89
e 82 100
e 82 107
e 82 108
e 82 109
e 83 86
e 83 87
e 83 88
e 83 92
e 83 93
e 83 94
e 83 95
e 83 96
e 83 98
e 83 99
e 83 104
e 83 105
e 83 106
e 84 86
e 84 87
e 84 88
e 84 92
e 84 93
e 84 94
e 84 95
e 84 96
e 84 98
e 84 99
e 84 104
e 84 105
e 84 106
e 85 86
e 85 87
e 85 88
e 85 90
e 85 92
e 85 93
e 85 98
e 85 99
e 85 104
e 85 105
e 85 107
e 86 87
e 86 88
e 86 89
e 86 90
e 86 91
e 86 92
e 86 93
e 86 94
e 86 95
e 86 96
e 86 97
e 86 98
e 86 99
e 86 100
e 86 101
e 86 102
e 86 103
e 86 104
e 86 105
e 86 106
e 86 110
e 86 111
e 86 112
e 86 113
e 86 114
e 86 115
e 86 116
e 87 88
e 87 90
e 87 92
e 87 93
e 87 94
e 87 95
e 87 96
e 87 97
e 87 98
e 87 99
e 87 102
e 87 103
e 87 104
e 87 105
e 87 106
e 87 110
e 87 111
e 87 112
e 87 113
e 87 115
e 87 116
e 88 90
e 88 92
e 88 93
e 88 94
e 88 95
e 88 96
e 88 97
e 88 98
e 88 99
e 88 102
e 88 103
e 88 104
e 88 105
e 88 106
e 88 110
e 88 111
e 88 112
e 88 113
e 88 115
e 88 116
e 89 91
e 89 92
e 89 100
e 89 101
e 89 107
e 89 108
e 89 109
e 89 110
e 89 112
e 89 114
e 90 92
e 90 93
e 90 98
e 90 99
e 90 104
e 90 105
e 90 107
e 90 109
e 91 100
e 91 107
e 91 108
e 91 109
e 92 93
e 92 94
e 92 95
e 92 96
e 92 97
e 92 98
e 92 99
e 92 102
e 92 103
e 92 104
e 92 105
e 92 106
e 92 110
e 92 111
e 92 112
e 92 113
e 92 115
e 92 116
e 93 94
e 93 95
e 93 96
e 93 97
e 93 98
e 93 99
e 93 102
e 93 103
e 93 104
e 93 105
e 93 106
e 93 111
e 93 113
e 93 115
e 93 116
e 94 95
e 94 96
e 94 97
e 94 98
e 94 99
e 94 102
e 94 103
e 94 104
e 94 105
e 94 106
e 94 111
e 94 113
e 94 115
e 94 116
e 95 96
e 95 97
e 95 98
e 95 99
e 95 102
e 95 104
e 95 105
e 95 106
e 95 111
e 95 113
e 95 115
e 95 116
e 96 97
e 96 98
e 96 99
e 96 102
e 96 104
e 96 105
e 96 106
e 96 111
e 96 113
e 96 115
e 96 116
e 97 98
e 97 99
e 97 104
e 97 105
e 97 106
e 98 99
e 98 102
e 98 103
e 98 104
e 98 105
e 98 106
e 98 111
e 98 113
e 98 115
e 98 116
e 99 102
e 99 103
e 99 104
e 99 105
e 99 106
e 99 111
e 99 113
e 99 115
e 99 116
e 100 101
e 100 107
e 100 108
e 100 109
e 100 114
e 101 107
e 101 108
e 101 109
e 102 104
e 102 105
e 102 106
e 102 116
e 103 104
e 103 105
e 103 106
e 104 105
e 104 106
e 104 110
e 104 111
e 104 112
e 104 113
e 104 115
e 104 116
e 105 106
e 105 111
e 105 113
e 105 115
e 105 116
e 106 111
e 106 113
e 106 115
e 106 116
e 107 108
e 107 109
e 107 110
e 107 112
e 107 114
e 108 109
e 108 110
e 108 112
e 108 114
e 109 110
e 109 112
e 109 114
e 110 112
